Maximize
  obj: +0 x0 -0 x1 -0 x2 +0 x3 -0 x4 +0 x5 +0 x6 -0 x7 +0 x8 +0 x9 +0 x10 +0 x11 +0 x12 +0 x13 -0 x14 -0 x15 +0 x16 +0 x17 +0 x18 -0 x19 -129 x20 -20 x21 +124 x22 -133 x23 +156 x24 -80 x25 -32 x26 +54 x27 -196 x28 +145 x29 +67 x30 +177 x31 -48 x32 -129 x33 +88 x34 +176 x35 +139 x36 -5 x37 +140 x38 -130 x39 
Subject to
  c1: +4 x0 +0 x1 +11 x2 +0 x3 +0 x4 +0 x5 +4 x6 +0 x7 +0 x8 +20 x9 +0 x10 +1 x11 +0 x12 +0 x13 +0 x14 +0 x15 +1 x16 +0 x17 +0 x18 +19 x19 +20 x20 <= 83
  c2: +0 x0 +0 x1 +0 x2 +20 x3 +0 x4 +0 x5 +17 x6 +5 x7 +7 x8 +0 x9 +19 x10 +12 x11 +20 x12 +1 x13 +0 x14 +0 x15 +0 x16 -1 x17 +2 x18 +0 x19 +16 x21 <= 99
  c3: +0 x0 +0 x1 +0 x2 +17 x3 +0 x4 +0 x5 +2 x6 +2 x7 +0 x8 +0 x9 +14 x10 +1 x11 +19 x12 +11 x13 +8 x14 +14 x15 +0 x16 +14 x17 +0 x18 +0 x19 +18 x22 <= 83
  c4: +0 x0 -1 x1 +0 x2 +0 x3 +0 x4 +16 x5 +0 x6 +0 x7 +20 x8 +14 x9 +0 x10 +11 x11 +0 x12 +13 x13 +2 x14 +0 x15 +0 x16 +0 x17 +0 x18 +0 x19 +19 x23 <= 55
  c5: +0 x0 +12 x1 +0 x2 +19 x3 +20 x4 +0 x5 +0 x6 +0 x7 +9 x8 +0 x9 +0 x10 +6 x11 +0 x12 +10 x13 +16 x14 +0 x15 +0 x16 +0 x17 +3 x18 +0 x19 +12 x24 <= 67
  c6: +0 x0 +0 x1 +0 x2 +17 x3 +0 x4 +15 x5 +9 x6 -1 x7 +0 x8 +0 x9 +1 x10 +0 x11 +14 x12 +0 x13 +0 x14 +16 x15 +0 x16 +0 x17 +0 x18 +0 x19 +4 x25 <= 97
  c7: +0 x0 +0 x1 +0 x2 +19 x3 +0 x4 +14 x5 +12 x6 +0 x7 +0 x8 +0 x9 +0 x10 +17 x11 +0 x12 +8 x13 +17 x14 +0 x15 +3 x16 +0 x17 +0 x18 +0 x19 +18 x26 <= 73
  c8: +0 x0 +16 x1 +12 x2 +0 x3 +0 x4 +5 x5 +0 x6 +0 x7 +0 x8 -1 x9 +0 x10 +0 x11 +0 x12 +0 x13 +10 x14 +0 x15 +0 x16 +0 x17 +0 x18 +0 x19 +19 x27 <= 64
  c9: -1 x0 +0 x1 +0 x2 +0 x3 +17 x4 +0 x5 +0 x6 +8 x7 +0 x8 +1 x9 +0 x10 +16 x11 +0 x12 +1 x13 +7 x14 +2 x15 +19 x16 +0 x17 +0 x18 +0 x19 +16 x28 <= 64
  c10: +0 x0 +0 x1 +2 x2 +0 x3 +0 x4 +0 x5 +17 x6 +15 x7 +0 x8 +15 x9 +0 x10 +4 x11 +15 x12 +0 x13 +0 x14 +0 x15 +0 x16 +5 x17 +2 x18 +0 x19 +19 x29 <= 80
  c11: +0 x0 +13 x1 +0 x2 +16 x3 +13 x4 +5 x5 +11 x6 +0 x7 +0 x8 +0 x9 +8 x10 +0 x11 +0 x12 +0 x13 -1 x14 +0 x15 +0 x16 +0 x17 +19 x18 +0 x19 +9 x30 <= 84
  c12: +5 x0 +19 x1 +6 x2 +6 x3 +0 x4 +9 x5 +0 x6 +0 x7 +16 x8 +17 x9 +17 x10 +0 x11 +9 x12 +0 x13 +0 x14 +3 x15 +20 x16 +0 x17 +9 x18 +0 x19 +6 x31 <= 78
  c13: +0 x0 +0 x1 +1 x2 +0 x3 +17 x4 +1 x5 +0 x6 +0 x7 +9 x8 +10 x9 +0 x10 +0 x11 +0 x12 +0 x13 +0 x14 +0 x15 -1 x16 +1 x17 +0 x18 +0 x19 +17 x32 <= 99
  c14: +20 x0 +13 x1 -1 x2 +0 x3 +0 x4 +5 x5 +18 x6 +0 x7 +20 x8 +0 x9 +0 x10 +0 x11 +0 x12 +0 x13 +9 x14 +18 x15 +0 x16 +0 x17 +15 x18 +11 x19 +1 x33 <= 52
  c15: +0 x0 +0 x1 +0 x2 +8 x3 +10 x4 -1 x5 +8 x6 +11 x7 +0 x8 +10 x9 +0 x10 +0 x11 -1 x12 +14 x13 +10 x14 +0 x15 +0 x16 +0 x17 -1 x18 +0 x19 +13 x34 <= 60
  c16: +8 x0 +19 x1 +0 x2 +0 x3 +19 x4 +14 x5 +10 x6 +0 x7 +8 x8 +9 x9 +0 x10 +0 x11 +0 x12 +0 x13 +16 x14 +0 x15 +0 x16 +4 x17 +17 x18 +0 x19 +2 x35 <= 98
  c17: +20 x0 +0 x1 +0 x2 +0 x3 +0 x4 +0 x5 +0 x6 +16 x7 +17 x8 +13 x9 +0 x10 +0 x11 +0 x12 +12 x13 +7 x14 +11 x15 -1 x16 +20 x17 +3 x18 +10 x19 +13 x36 <= 53
  c18: +0 x0 +16 x1 +11 x2 +0 x3 +5 x4 +1 x5 +0 x6 +4 x7 +0 x8 +4 x9 +0 x10 +8 x11 +0 x12 +9 x13 +20 x14 +11 x15 +0 x16 +3 x17 +10 x18 +0 x19 +5 x37 <= 66
  c19: +7 x0 +0 x1 +0 x2 +12 x3 +0 x4 +0 x5 +0 x6 +0 x7 +0 x8 +3 x9 +1 x10 +0 x11 +0 x12 +0 x13 +0 x14 +0 x15 +0 x16 +0 x17 +0 x18 +15 x19 +9 x38 <= 61
  c20: +11 x0 +13 x1 +7 x2 +0 x3 +11 x4 +0 x5 +0 x6 +0 x7 +12 x8 +2 x9 +0 x10 +8 x11 +0 x12 +12 x13 +0 x14 +6 x15 +0 x16 +18 x17 +18 x18 +0 x19 +8 x39 <= 53
  c21: +0 x0 +0 x1 +0 x2 +17 x3 +0 x4 +0 x5 +4 x6 +2 x7 +5 x8 +0 x9 +0 x10 +12 x11 +10 x12 +0 x13 +0 x14 +0 x15 -1 x16 +0 x17 +12 x18 +0 x19 <= 89
  c22: +20 x0 -1 x1 +0 x2 +14 x3 +0 x4 +7 x5 +8 x6 -1 x7 +7 x8 +0 x9 +11 x10 +0 x11 +8 x12 +0 x13 +13 x14 -1 x15 +17 x16 +8 x17 +0 x18 +0 x19 <= 91
  c23: +0 x0 +9 x1 +13 x2 +1 x3 +0 x4 +5 x5 +0 x6 +2 x7 +0 x8 +0 x9 +18 x10 +12 x11 +10 x12 +0 x13 +0 x14 +0 x15 +15 x16 +12 x17 +0 x18 +0 x19 <= 50
  c24: +4 x0 +0 x1 +14 x2 +0 x3 +2 x4 -1 x5 +0 x6 +0 x7 +0 x8 +0 x9 +7 x10 +0 x11 +11 x12 +0 x13 +0 x14 +19 x15 +0 x16 +0 x17 +15 x18 +10 x19 <= 76
  c25: +7 x0 +0 x1 +0 x2 +0 x3 +6 x4 +14 x5 +0 x6 +0 x7 +0 x8 +0 x9 +0 x10 +0 x11 +2 x12 +11 x13 +0 x14 +9 x15 +20 x16 +0 x17 +0 x18 +0 x19 <= 95
  c26: +9 x0 +0 x1 +0 x2 +0 x3 +0 x4 +0 x5 +0 x6 +4 x7 +0 x8 +0 x9 +0 x10 +0 x11 +2 x12 +5 x13 +0 x14 +17 x15 +16 x16 +9 x17 +0 x18 +20 x19 <= 80
  c27: +0 x0 +19 x1 +9 x2 +0 x3 +0 x4 +0 x5 +8 x6 +9 x7 +6 x8 +20 x9 +18 x10 +0 x11 +0 x12 +17 x13 +0 x14 +16 x15 +0 x16 +0 x17 +0 x18 +15 x19 <= 60
  c28: +0 x0 +0 x1 +7 x2 +15 x3 +0 x4 +0 x5 +0 x6 +4 x7 +18 x8 +0 x9 +0 x10 +0 x11 +10 x12 +9 x13 +0 x14 +0 x15 +10 x16 +4 x17 +19 x18 +12 x19 <= 67
  c29: +0 x0 +2 x1 -1 x2 +13 x3 +0 x4 +0 x5 +0 x6 +0 x7 +0 x8 +0 x9 +8 x10 +0 x11 +10 x12 +0 x13 +4 x14 +15 x15 +1 x16 +0 x17 +8 x18 +0 x19 <= 92
  c30: +18 x0 +14 x1 +16 x2 +0 x3 +0 x4 +0 x5 +4 x6 +15 x7 +0 x8 +19 x9 +9 x10 +3 x11 +15 x12 +3 x13 +0 x14 +0 x15 +0 x16 +0 x17 +0 x18 +0 x19 <= 77
  c31: +18 x0 +0 x1 +0 x2 +14 x3 +11 x4 +0 x5 +0 x6 +0 x7 +0 x8 +16 x9 +0 x10 +0 x11 +0 x12 +0 x13 +13 x14 +4 x15 +0 x16 +0 x17 +0 x18 +20 x19 <= 96
  c32: +4 x0 +9 x1 +0 x2 +17 x3 +1 x4 -1 x5 +11 x6 +7 x7 +18 x8 +0 x9 +0 x10 +17 x11 +0 x12 +6 x13 +0 x14 +18 x15 +8 x16 +0 x17 +13 x18 +0 x19 <= 99
  c33: +0 x0 +0 x1 +0 x2 +0 x3 +1 x4 +13 x5 +19 x6 +1 x7 +0 x8 +0 x9 +5 x10 +0 x11 +0 x12 +15 x13 +0 x14 +7 x15 -1 x16 +0 x17 +11 x18 +1 x19 <= 100
  c34: +0 x0 +3 x1 +17 x2 +9 x3 +0 x4 +0 x5 +0 x6 +9 x7 +4 x8 +0 x9 +1 x10 +12 x11 +0 x12 +0 x13 +0 x14 +7 x15 +8 x16 +0 x17 +11 x18 -1 x19 <= 78
  c35: +0 x0 +1 x1 +18 x2 +0 x3 +0 x4 +0 x5 +19 x6 +0 x7 +0 x8 +3 x9 +0 x10 +0 x11 +0 x12 +8 x13 +0 x14 +0 x15 +0 x16 +0 x17 +1 x18 +0 x19 <= 54
  c36: +0 x0 +13 x1 +0 x2 +0 x3 +0 x4 +0 x5 +0 x6 +10 x7 +0 x8 +3 x9 +11 x10 +18 x11 +0 x12 +0 x13 +0 x14 +14 x15 +16 x16 +0 x17 +20 x18 +0 x19 <= 91
  c37: +8 x0 +0 x1 +0 x2 +0 x3 +0 x4 +7 x5 +0 x6 +4 x7 +0 x8 +0 x9 +3 x10 +0 x11 +11 x12 +0 x13 +0 x14 +12 x15 +5 x16 +0 x17 +12 x18 +2 x19 <= 75
  c38: +2 x0 +0 x1 +0 x2 +0 x3 +0 x4 +0 x5 +19 x6 +0 x7 +15 x8 +3 x9 -1 x10 +17 x11 +11 x12 +0 x13 -1 x14 +0 x15 +0 x16 +0 x17 +8 x18 +0 x19 <= 77
  c39: +0 x0 +0 x1 +0 x2 +0 x3 +0 x4 +20 x5 +0 x6 +0 x7 +0 x8 +4 x9 +0 x10 +0 x11 +8 x12 +0 x13 +0 x14 +10 x15 +0 x16 +16 x17 +9 x18 +3 x19 <= 54
  c40: + x20 + x21 + x22 + x23 + x24 + x25 + x26 + x27 + x28 + x29 + x30 + x31 + x32 + x33 + x34 + x35 + x36 + x37 + x38 + x39 <= 6.666667
Binary
 x20
 x21
 x22
 x23
 x24
 x25
 x26
 x27
 x28
 x29
 x30
 x31
 x32
 x33
 x34
 x35
 x36
 x37
 x38
 x39
End
